db/data/69741282324954992169214258125798318.z3.out
-------------------
2500.260590868
